(set-info :smt-lib-version 2.7)
(set-logic QF_EIA)
(set-info :source |
Generated by: Florian Frohn
Generator: LoAT
Application: proving lower bounds on the worst-case runtime of transition systems
Target solver: SwInE
Time limit: 1.0
Benchmarks generated by the verification tool LoAT to evaluate the SMT solver
SwInE. We extracted all benchmarks with exponentiation that were generated by
LoAT when analyzing the examples from the category LIA-Lin (linear CHCs with
linear integer arithmetic) of the CHC competitions 2022 and 2023, and when
analyzing the examples from the categories "Termination of Integer Transition
Systems" and "Complexity of Integer Transition Systems" of the Termination and
Complexity Competition 2024. From the entire set, we selected those where
* SwInE v0.1.0 or SwInE-Z3 v0.1.2 failed or needed more than 1 second, or
* SwInE-Z3 v0.1.2 failed without phasing, a technique to prevent SwInE from
  computing with huge constants (described here
  https://arxiv.org/abs/2502.04761)
If several selected benchmarks only differed in lines not containing
exponentiation, we kept only one of them. This benchmark is known to be
satisfiable with the slightly different semantics of exponentiation used by the
versions of SwInE mentioned above.
|)
(set-info :license "https://creativecommons.org/licenses/by/4.0/")
(set-info :category "industrial")
(set-info :status unknown)

(declare-fun i1 () Int)
(declare-fun it443 () Int)
(declare-fun i2 () Int)
(declare-fun it444 () Int)
(declare-fun i3 () Int)
(declare-fun it445 () Int)
(declare-fun it446 () Int)
(declare-fun i4 () Int)
(declare-fun i5 () Int)
(declare-fun it447 () Int)
(declare-fun i6 () Int)
(declare-fun it448 () Int)
(declare-fun i7 () Int)
(declare-fun it449 () Int)
(declare-fun it457 () Int)
(declare-fun it458 () Int)
(declare-fun it459 () Int)
(declare-fun it460 () Int)
(declare-fun it461 () Int)
(declare-fun it462 () Int)
(declare-fun it463 () Int)
(declare-fun it631 () Int)
(declare-fun it632 () Int)
(declare-fun it633 () Int)
(declare-fun it634 () Int)
(declare-fun it635 () Int)
(declare-fun it636 () Int)
(declare-fun it637 () Int)
(declare-fun it316 () Int)
(declare-fun it643 () Int)
(declare-fun it644 () Int)
(declare-fun it645 () Int)
(declare-fun it646 () Int)
(declare-fun it647 () Int)
(declare-fun it648 () Int)
(declare-fun it649 () Int)
(declare-fun it655 () Int)
(declare-fun it656 () Int)
(declare-fun it657 () Int)
(declare-fun it658 () Int)
(declare-fun it659 () Int)
(declare-fun it660 () Int)
(declare-fun it661 () Int)
(declare-fun it664 () Int)
(declare-fun it665 () Int)
(declare-fun it666 () Int)
(declare-fun it667 () Int)
(declare-fun it668 () Int)
(declare-fun it669 () Int)
(declare-fun it670 () Int)
(declare-fun it743 () Int)
(declare-fun it744 () Int)
(declare-fun it745 () Int)
(declare-fun it746 () Int)
(declare-fun it747 () Int)
(declare-fun it748 () Int)
(declare-fun it749 () Int)
(assert (= (+ i1 (- 1)) 0))
(assert (= (+ it443 (- 5)) 0))
(assert (= (+ it444 (* i2 (- 1)) (- 4)) 0))
(assert (= (+ it445 (* i3 (- 1))) 0))
(assert (= (+ (* i4 (- 1)) it446) 0))
(assert (= (+ it447 (* i5 (- 1))) 0))
(assert (= (+ it448 (* i6 (- 1))) 0))
(assert (= (+ it449 (* i7 (- 1))) 0))
(assert (and (= (+ it443 (- 5)) 0) (> (+ it446 (- 2)) 0)))
(assert (= (+ it457 (- 18)) 0))
(assert (= (+ (* it444 (- 1)) it458 (- 12)) 0))
(assert (= (+ (* it445 (- 1)) it459) 0))
(assert (= (+ it460 (* it446 (- 1))) 0))
(assert (= (+ (* it447 (- 1)) it461) 0))
(assert (= it462 0))
(assert (= (+ it463 (* it449 (- 1))) 0))
(assert (and (<= (+ (* it460 (- 1)) it462 2) 0) (= (+ it457 (- 18)) 0)))
(assert (= (+ it631 (- 20)) 0))
(assert (= (+ it632 (* it458 (- 1)) (- 2)) 0))
(assert (= (+ it633 (* it459 (- 1))) 0))
(assert (= (+ (* it460 (- 1)) it634) 0))
(assert (= it635 0))
(assert (= (+ it636 (* it462 (- 1))) 0))
(assert (= (+ (* it463 (- 1)) it637) 0))
(assert (let ((a!1 (+ (+ 0 (+ (* it636 (- 1)) it634))
              (* (** 2 it316) (+ 0 (- 2)))
              (* (+ 0 it635) (** 2 (+ it316 (- 1))) (+ 0 (- 2)))
              (+ 0 1))))
  (and (>= (+ it631 (- 20)) 0)
       (> a!1 (+ 0 0))
       (>= (+ (* it635 (- 2)) (* it636 (- 1)) it634 (- 3)) 0)
       (>= (+ (* it631 (- 1)) 20) 0)
       (> (+ (* it635 (- 2)) (* it636 (- 1)) it634 (- 3)) 0)
       (>= (+ it316 (- 1)) 0)
       (>= a!1 (+ 0 0)))))
(assert (= (+ it643 (* it631 (- 1))) 0))
(assert (= (+ (* it632 (- 1)) it644 (* it316 (- 6))) 0))
(assert (= (+ it645 (* it633 (- 1))) 0))
(assert (= (+ it646 (* it634 (- 1))) 0))
(assert (let ((a!1 (+ (* (** 2 (+ it316 1)) (+ 0 (- 1)))
              (* (+ 0 it635) (** 2 it316) (+ 0 (- 1)))
              (+ 0 it647)
              (+ 0 2))))
  (= a!1 (+ 0 0))))
(assert (= (+ it648 (* it636 (- 1))) 0))
(assert (let ((a!1 (+ (+ 0 it649)
              (* (** 2 it316) (+ 0 (- 2)))
              (* (+ 0 it635) (** 2 (+ it316 (- 1))) (+ 0 (- 2)))
              (+ 0 2))))
  (= a!1 (+ 0 0))))
(assert (and (<= (+ it648 (* it646 (- 1)) (* it647 2) 3) 0) (= (+ it643 (- 20)) 0)))
(assert (= (+ it655 (- 21)) 0))
(assert (= (+ (* it644 (- 1)) it656 (- 1)) 0))
(assert (= (+ (* it645 (- 1)) it657) 0))
(assert (= (+ (* it646 (- 1)) it658) 0))
(assert (= (+ (* it647 (- 1)) it659) 0))
(assert (= (+ (* it648 (- 1)) it660) 0))
(assert (= (+ (* it649 (- 1)) it661) 0))
(assert (and (= (+ it660 (* it658 (- 1)) (* it659 2) 3) 0) (= (+ it655 (- 21)) 0)))
(assert (= (+ it664 (- 26)) 0))
(assert (= (+ it665 (* it656 (- 1)) (- 2)) 0))
(assert (= (+ (* it657 (- 1)) it666) 0))
(assert (= (+ (* it658 (- 1)) it667) 0))
(assert (= (+ it668 (* it659 (- 1))) 0))
(assert (= (+ (* it660 (- 1)) it669) 0))
(assert (= (+ (* it659 (- 2)) it670 (- 1)) 0))
(assert (let ((a!1 (>= (+ (+ (* it669 (- 1)) it667) (- 5)) 0))
      (a!2 (>= (+ (+ (* it669 (- 1)) it667) (- 4)) 0))
      (a!3 (>= (+ (+ (* it669 (- 1)) it667) (- 3)) 0))
      (a!4 (> (+ (+ (* it669 (- 1)) it667) (- 4)) 0)))
  (and a!1
       a!2
       (> (+ it669 it667 3) 0)
       (>= (+ it664 (- 26)) 0)
       (> 1 0)
       a!3
       a!4
       (>= (+ (* it664 (- 1)) 26) 0))))
(assert (= (+ (* it664 (- 1)) it743) 0))
(assert (= (+ (* it665 (- 1)) it744 (* it669 11) (* it667 (- 11)) 44) 0))
(assert (= (+ it745 (* it667 (- 1)) 4) 0))
(assert (= (+ (* it667 (- 1)) it746) 0))
(assert (= it747 0))
(assert (= (+ it748 (* it667 (- 1)) 4) 0))
(assert (= (+ it749 (- 1)) 0))
(check-sat)
(exit)
